38532 40534 
37707 40820 
37690 41011 
38226 40694 
39218 39996 
38553 40458 
38416 40601 
38807 40211 
39198 40089 
39440 39933 
38881 40164 
39589 39699 
38603 40306 
38598 40367 
40945 38219 
40874 38333 
40710 38516 
39949 39246 
40839 38372 
40444 38914 
40608 38722 
39899 39526 
40644 38656 
40202 39091 
40515 38800 
40171 39183 
40679 38608 
40387 39074 
40808 38464 
39664 39572 
40094 39242 
40582 38790 
39605 39586 
40992 38212 
41023 38120 
